/* Objective function */
min: - 0.0054fpdi - 0.0054fpdo + 0.05apdi + 0.05apdo + 0.0002pi + 0.0002po - 0.5fsi - 0.5fso;

apdi = 0.0 hi + -0.0 li + 12.70968 ri + -0.00619 ci + -1.91905 si + -0.0 ti + 0.12501 fTempIi + 0.00618 ami + -155.69101;
asi = 0.0 hi + 0.0 li + -0.0 ri + -0.0 ci + -0.0 si + -0.0 ti + 0.0 fTempIi + 6e-05 ami + -0.02;
aTempOi = 0.0 hi + -0.0 li + 0.30009 ri + -0.04206 ci + -0.0533 si + -0.0 ti + 0.772 fTempIi + -0.00018 ami + 7.00842;
fpdi = 0.0 hi + 0.0 li + 9.88102 ri + -10.19631 ci + -0.02241 si + -0.0 ti + -0.54321 fTempIi + 7e-05 ami + 277.09914;
fsi = 0.0 hi + 0.0 li + -2e-05 ri + -0.04098 ci + 0.0 si + -0.0 ti + 4e-05 fTempIi + -0.0 ami + 2.11907;
fTempOi = 0.0 hi + -0.0 li + -0.29618 ri + 0.04146 ci + 0.05263 si + 0.0 ti + 0.24725 fTempIi + -0.00015 ami + 9.45009;
pi = 0.0 hi + -0.0 li + 349.40333 ri + 3.14333 ci + -30.92914 si + -0.0 ti + 0.0 fTempIi + 0.0 ami + 1235.98286;

apdo = 0.0 ho + 0.0 lo + 12.86481 ro + 0.0004 co + -1.93596 so + 0.0 to + 0.11247 fTempIo + 0.00636 amo + -159.12734;
aso = 0.0 ho + 0.0 lo + -6e-05 ro + -0.0001 co + -2e-05 so + -0.0 to + -0.00011 fTempIo + 6e-05 amo + -0.0148;
aTempOo = 0.0 ho + -0.0 lo + -0.30517 ro + 0.04457 co + 0.06071 so + -0.0 to + 0.7629 fTempIo + 0.00019 amo + -0.61173;
fpdo = 0.0 ho + 0.0 lo + 25.783 ro + -39.25821 co + 0.06487 so + -0.0 to + -1.38517 fTempIo + -0.0002 amo + 729.71018;
fso = 0.0 ho + 0.0 lo + 0.00016 ro + -0.08423 co + -3e-05 so + -0.0 to + 0.00068 fTempIo + 0.0 amo + 3.0285;
fTempOo = 0.0 ho + 0.0 lo + 0.30094 ro + -0.04194 co + -0.06002 so + -0.0 to + 0.24863 fTempIo + 0.00017 amo + 12.53277;
po = 0.0 ho + 0.0 lo + 349.42778 ro + 3.13333 co + -30.92952 so + 0.0 to + 0.0 fTempIo + 0.0 amo + 1235.9127;

/* Variable bounds */
aTempOi > 18.6;
1 =r6i + r8i + r10i + r12i + r14i;
ri =6r6i + 8r8i + 10r10i + 12r12i + 14r14i;
1 =s25i + s30i + s40i;
si =25s25i + 30s30i + 40s40i;
ti = 2;
apdi > 100;
apdi < 300;
asi > 0;
asi < 3;
aTempOi > 5;
aTempOi < 25;
fpdi > 100;
fpdi < 300;
fsi > 0;
fsi < 1.25;
fTempOi > 5;
fTempOi < 25;
pi > 0;
ri > 6;
ri < 14;
ci > 22;
ci < 60;
si > 25;
si < 60;
ti > 1;
ti < 3;
fTempIi > 5;
fTempIi < 25;

/* aTempOo < 11.4; */
1 =r6o + r8o + r10o + r12o + r14o;
ro =6r6o + 8r8o + 10r10o + 12r12o + 14r14o;
1 =s25o + s30o + s40o;
so =25s25o + 30s30o + 40s40o;
to = 2;
apdo > 100;
apdo < 300;
aso > 0;
aso < 3;
aTempOo > 5;
aTempOo < 25;
fpdo > 100;
fpdo < 300;
fso > 0;
fso < 1.25;
fTempOo > 5;
fTempOo < 25;
po > 0;
ro > 6;
ro < 14;
co > 1;
co < 22;
so > 25;
so < 60;
to > 1;
to < 3;
fTempIo > 5;
fTempIo < 25;
int hi,li,si,ti,ci,ri,ami;
int ho,lo,so,to,co,ro,amo;
bin s25i,s30i,s40i,s50i,s60i,r6i,r8i,r10i,r12i,r14i;
bin s25o,s30o,s40o,s50o,s60o,r6o,r8o,r10o,r12o,r14o;
